[VALIDATOR STDOUT]
Checking plan: /home/jfan5/Safety-gen/runs/benchmark/optic/grippers_20260201_172244/grippers/optic_results/grippers-n3-r24-o22-s22001.plan
Plan executed successfully - checking goal
Plan valid
Final value: 80 

Successful plans:
Value: 80
 /home/jfan5/Safety-gen/runs/benchmark/optic/grippers_20260201_172244/grippers/optic_results/grippers-n3-r24-o22-s22001.plan 80
